103
0 54 51 15 46 4 33 102 26 43 
34 65 80 37 73 13 79 77 87 94 
101 83 61 18 42 88 1 50 68 55 
36 32 75 5 9 76 58 22 71 63 
69 99 95 11 85 45 59 70 25 91 
17 8 27 72 89 64 2 84 44 24 
39 21 6 38 12 10 81 3 67 74 
35 60 48 56 62 52 40 41 97 47 
53 29 28 49 66 100 82 96 86 20 
78 31 7 19 23 30 14 92 98 16 
93 57 90 
